DIMENSION: 12
EDGE_WEIGHT_TYPE: EXPLICIT
EDGE_WEIGHT_FORMAT: FULL_MATRIX
EDGE_WEIGHT_SECTION:
32767 32767 32767 41 32767 32767 32767 32767 7 46 32767 32767 
32767 32767 32767 32767 32767 32767 59 32767 53 32767 96 32767 
32767 32767 32767 32767 76 32767 32767 27 32767 32767 32767 94 
41 32767 32767 32767 32767 71 32767 32767 6 32767 32767 32767 
32767 32767 76 32767 32767 32767 56 32767 32767 32767 37 32767 
32767 32767 32767 71 32767 32767 32767 32767 32767 100 32767 32767 
32767 59 32767 32767 56 32767 32767 32767 32767 32767 32767 23 
32767 32767 27 32767 32767 32767 32767 32767 32767 32767 32767 32767 
7 53 32767 6 32767 32767 32767 32767 32767 82 32767 32767 
46 32767 32767 32767 32767 100 32767 32767 82 32767 32767 32767 
32767 96 32767 32767 37 32767 32767 32767 32767 32767 32767 32767 
32767 32767 94 32767 32767 32767 23 32767 32767 32767 32767 32767 
EOF